CMD:
./solvers/bin/cadical --plain --no-reduce -t 1600 ./data/cnfs//6s317b14/6s317b14.95.cnf

c --- [ banner ] -------------------------------------------------------------
c 
c CaDiCaL SAT Solver
c Copyright (c) 2016-2024
c A. Biere, M. Fleury, N. Froleyks, K. Fazekas, F. Pollitt, T. Faller
c JKU Linz, University of Freiburg, TU Wien
c 
c Version 2.1.3 5296d3d2a9bf48c154ab2acb5e44625776d821bf
c g++ (Gentoo 12.3.1_p20230526 p2) 12.3.1 20230526 -Wall -Wextra -O3 -DNDEBUG
c Sat Aug 9 07:26:21 PDT 2025 Linux cedar2.int.cedar.computecanada.ca 5.14.0-362.24.2.el9_3.x86_64 x86_64
c 
c --- [ limit ] --------------------------------------------------------------
c 
c setting time limit to 1600 seconds real time (due to '-t 1600')
c 
c --- [ parsing input ] ------------------------------------------------------
c 
c reading DIMACS file from './data/cnfs//6s317b14/6s317b14.95.cnf'
c opening file to read './data/cnfs//6s317b14/6s317b14.95.cnf'
c found 'p cnf 455296 1352646' header
c parsed 1352646 clauses in 0.19 seconds process time
c 
c --- [ options ] ------------------------------------------------------------
c 
c   --compact=false                (different from default 'true')
c   --decompose=false              (different from default 'true')
c   --deduplicate=false            (different from default 'true')
c   --elim=false                   (different from default 'true')
c   --probe=false                  (different from default 'true')
c   --reduce=false                 (different from default 'true')
c   --subsume=false                (different from default 'true')
c   --ternary=false                (different from default 'true')
c   --transred=false               (different from default 'true')
c   --vivify=false                 (different from default 'true')
c 
c --- [ solving ] ------------------------------------------------------------
c 
c time measured in process time since initialization
c 
c  seconds   reductions  redundant   irredundant
c          MB    restarts       trail        variables
c           level   conflicts       glue           remaining
c 
c *  0.19 209  0 0   0    0    0  0% 0 1334126 442151 97%
c {  0.20 210  0 0   0    0    0  0% 0 1334126 442151 97%
c }  0.41 215 1469 0   0 1000  846 44% 3 1334126 442151 97%
c [  0.41 215  0 0   0 1000  846  0% 0 1334126 442151 97%
c O  0.43 215 1626 0   0 1002  848 45% 2 1334126 442151 97%
c ]  0.94 218 2045 0   1 3001 2702 68% 4 1334126 442151 97%
c {  0.94 218 1469 0   1 3001 2702 44% 3 1334126 442151 97%
c F  0.95 218 1467 0   1 3003 2704 44% 3 1334126 442151 97%
c i  1.49 219 572 0 195 5623 5096 22% 3 1334126 442145 97%
c i  1.54 219 541 0 207 5929 5365 21% 3 1334126 442133 97%
c i  1.54 219 541 0 207 5930 5365 21% 3 1334126 442126 97%
c i  1.54 219 541 0 207 5931 5365 21% 3 1334126 442113 97%
c i  1.55 219 540 0 207 5937 5370 21% 3 1334126 442105 97%
c i  1.55 219 539 0 207 5939 5371 21% 3 1334126 442097 97%
c i  1.55 219 538 0 207 5947 5376 21% 3 1334126 442076 97%
c i  1.55 219 537 0 207 5955 5383 21% 3 1334126 442074 97%
c i  1.55 219 537 0 207 5957 5384 21% 3 1334126 442072 97%
c i  1.55 219 537 0 207 5959 5385 21% 3 1334126 442051 97%
c i  1.55 219 536 0 207 5961 5385 21% 3 1334126 441881 97%
c i  1.55 219 536 0 207 5964 5385 21% 3 1334126 441786 97%
c 
c  seconds    reductions  redundant   irredundant
c          MB     restarts       trail        variables
c            level   conflicts       glue           remaining
c 
c #  1.57 219 531 0 207 6004 5424 21% 3 1334126 441478 97%
c i  1.58 219 528 0 207 6022 5440 21% 3 1334126 441470 97%
c i  1.58 219 528 0 207 6024 5441 21% 3 1334126 441463 97%
c i  1.58 219 527 0 207 6028 5443 21% 3 1334126 441453 97%
c i  1.67 219 494 0 246 6365 5752 20% 3 1334126 441448 97%
c i  1.67 219 492 0 246 6376 5761 20% 3 1334126 441437 97%
c i  1.68 219 482 0 250 6463 5840 19% 3 1334126 441432 97%
c i  1.70 220 468 0 256 6629 5981 19% 3 1334126 441424 97%
c i  1.70 220 468 0 256 6631 5982 19% 3 1334126 441264 97%
c }  1.74 220 437 0 270 7001 6318 18% 3 1334126 441207 97%
c [  1.74 220 2045 0 270 7001 6318 68% 4 1334126 441207 97%
c i  1.86 220 1310 0 271 8425 7643 47% 4 1334126 441206 97%
c i  1.87 220 1300 0 271 8464 7679 47% 4 1334126 441204 97%
c i  1.87 220 1298 0 271 8471 7681 47% 4 1334126 441193 97%
c i  1.87 220 1296 0 271 8478 7686 46% 4 1334126 441191 97%
c i  1.96 220 1081 0 272 9412 8556 40% 4 1334126 441187 97%
c i  1.99 220 1008 0 272 9731 8850 38% 4 1334126 441183 97%
c I  2.04 220 956 0 272 10005 9100 36% 4 1334126 441183 97%
c i  2.19 220 749 0 274 11434 10387 29% 4 1334126 441152 97%
c i  2.22 220 725 0 274 11714 10638 29% 4 1334126 441147 97%
c 
c  seconds    reductions    redundant   irredundant
c          MB     restarts         trail        variables
c            level    conflicts        glue           remaining
c 
c ]  2.63 221 779 0 275 15007 13652 34% 5 1334126 441126 97%
c {  2.63 221 437 0 275 15007 13652 18% 3 1334126 441126 97%
c B  2.67 221 437 0 275 15008 13653 18% 3 1334126 441126 97%
c i  2.74 221 429 0 298 15117 13750 18% 3 1334126 441124 97%
... skipped 118 lines ...
c           MB      restarts            trail        variables
c             level      conflicts          glue           remaining
c 
c i 127.13 282 106 0 17296 287006 266502 13% 5 1304155 440108 97%
c i 127.13 282 106 0 17296 287013 266508 13% 5 1304155 439916 97%
c i 128.07 282 105 0 17478 288273 267683 13% 5 1304155 439876 97%
c B 139.13 282 104 0 19637 300039 278689 13% 5 1304155 439876 97%
c i 142.05 282 103 0 20134 304032 282439 13% 5 1304155 439870 97%
c i 143.54 282 102 0 20466 305704 283977 13% 5 1304155 439867 97%
c i 145.23 282 103 0 20720 307572 285718 13% 5 1304155 439864 97%
c i 147.41 282 103 0 20986 309874 287824 13% 5 1304155 439858 97%
c W 162.89 316 105 0 23096 325042 301938 14% 5 1303058 439858 97%
c i 179.70 316 108 0 25471 343054 318699 14% 5 1303058 439839 97%
c i 180.20 316 107 0 25571 343601 319211 14% 5 1303058 439831 97%
c # 188.21 316 106 0 26982 351043 326138 14% 5 1303058 439831 97%
c i 192.47 316 106 0 27542 354991 329846 14% 5 1303058 439775 97%
c B 215.79 316 105 0 30898 378044 351272 14% 5 1303058 439663 97%
c W 243.67 322 106 0 34868 406046 377242 15% 5 1302228 439663 97%
c i 253.79 322 106 0 36157 415801 386333 15% 6 1302228 439661 97%
c i 261.57 322 106 0 37163 423536 393562 15% 6 1302228 439577 97%
c F 274.22 322 106 0 38978 435047 404285 15% 6 1302228 439577 97%
c B 301.58 322 110 0 42389 465048 432131 15% 6 1302228 439577 97%
c W 334.70 331 109 0 46680 496049 460765 15% 6 1301845 439577 97%
c 
c  seconds     reductions       redundant    irredundant
c           MB      restarts            trail        variables
c             level      conflicts          glue           remaining
c 
c } 350.55 331 109 0 48521 511013 474690 16% 6 1301845 439577 97%
c [ 350.55 331 450 0 48521 511013 474690 47% 14 1301845 439577 97%
c W 355.22 331 410 0 48521 528050 490832 43% 15 1301845 439577 97%
c i 366.83 331 344 0 48525 547811 508913 40% 13 1301845 439493 97%
c i 367.66 331 331 0 48528 552106 512776 41% 13 1301845 439367 97%
c I 371.30 331 305 0 48532 561051 520805 41% 12 1301845 439367 97%
c B 382.01 331 307 0 48548 595053 552907 38% 13 1301845 439367 97%
c i 382.28 331 303 0 48549 596236 553852 38% 13 1301845 439311 96%
c i 394.30 331 234 0 48553 628309 583532 38% 12 1301845 439171 96%
c W 395.81 362 233 0 48555 630054 560114 37% 12 1300018 439171 96%
c O 408.01 362 209 0 48572 666055 591987 34% 12 1300018 439171 96%
c i 408.86 362 203 0 48574 669295 594474 34% 12 1300018 439059 96%
c i 413.01 362 182 0 48581 682371 605618 32% 12 1300018 438807 96%
c i 414.30 362 177 0 48581 685692 608327 31% 12 1300018 438743 96%
c i 414.82 362 176 0 48582 686786 609274 31% 12 1300018 438633 96%
c i 414.93 362 176 0 48582 687047 609444 31% 12 1300018 438630 96%
c ] 414.93 362 176 0 48582 687054 609444 31% 12 1300018 438326 96%
c 0 414.93 362 176 0 48582 687054 609444 31% 12 1300018 438326 96%
c 
c --- [ result ] -------------------------------------------------------------
c 
s UNSATISFIABLE
c 
c --- [ run-time profiling ] -------------------------------------------------
c 
c process time taken by individual solving procedures
c (percentage relative to process time for solving)
c 
c       414.74  100.00% search
c       301.72   72.75% unstable
c       109.32   26.36% stable
c         3.70    0.89% walk
c         0.19    0.05% parse
c         0.00    0.00% lucky
c         0.00    0.00% simplify
c   =================================
c       414.74   99.95% solve
c 
c last line shows process time for solving
c (percentage relative to total process time)
c 
c --- [ statistics ] ---------------------------------------------------------
c 
c chronological:            340070        49.50 %  of conflicts
c conflicts:                687054      1656.60    per second
c decisions:               5814000     14018.51    per second
c fixed:                     16816         3.69 %  of all variables
c learned:                  661225        96.24 %  per conflict
c learned_lits:           22989811       100.00 %  learned literals
c minimized:                     0         0.00 %  learned literals
c shrunken:                2164436         9.41 %  learned literals
c minishrunken:            3998948        17.39 %  learned literals
c otfs:                       4813         0.70 %  of conflict
c propagations:         3953163572         9.53 M  per second
c rephased:                     36     19084.83    interval
c restarts:                  48582        14.14    interval
c stabilizing:                   5        50.36 %  of conflicts
c subsumed:                  26203         1.31 %  of all clauses
c strengthened:               4687         0.23 %  of all clauses
c walked:                       11     62459.45    interval
c 
c seconds are measured in process time for solving
c 
c --- [ resources ] ----------------------------------------------------------
c 
c total process time since initialization:       414.93    seconds
c total real time since initialization:          416.53    seconds
c maximum resident set size of process:          450.88    MB
c 
c --- [ shutting down ] ------------------------------------------------------
c 
c exit 20
